p edge 56 750
e 1 2
e 1 6
e 1 7
e 1 11
e 1 12
e 1 13
e 1 14
e 1 17
e 1 18
e 1 24
e 1 25
e 1 28
e 1 29
e 1 30
e 1 31
e 1 33
e 1 34
e 1 35
e 1 36
e 1 38
e 1 39
e 1 40
e 1 42
e 1 48
e 1 49
e 1 55
e 2 3
e 2 4
e 2 5
e 2 6
e 2 7
e 2 10
e 2 12
e 2 15
e 2 17
e 2 22
e 2 24
e 2 25
e 2 26
e 2 27
e 2 28
e 2 33
e 2 34
e 2 37
e 2 39
e 2 40
e 2 41
e 2 43
e 2 44
e 2 46
e 2 48
e 2 49
e 2 51
e 2 52
e 2 54
e 2 56
e 3 5
e 3 6
e 3 8
e 3 9
e 3 11
e 3 13
e 3 14
e 3 16
e 3 18
e 3 19
e 3 20
e 3 22
e 3 24
e 3 26
e 3 27
e 3 28
e 3 33
e 3 34
e 3 36
e 3 37
e 3 38
e 3 40
e 3 41
e 3 43
e 3 44
e 3 45
e 3 55
e 3 56
e 4 6
e 4 9
e 4 10
e 4 12
e 4 13
e 4 19
e 4 22
e 4 23
e 4 24
e 4 28
e 4 36
e 4 38
e 4 40
e 4 42
e 4 44
e 4 45
e 4 46
e 4 50
e 4 52
e 4 53
e 5 7
e 5 9
e 5 10
e 5 11
e 5 15
e 5 19
e 5 20
e 5 21
e 5 22
e 5 24
e 5 25
e 5 30
e 5 32
e 5 33
e 5 35
e 5 36
e 5 38
e 5 39
e 5 40
e 5 41
e 5 45
e 5 47
e 5 48
e 5 51
e 5 52
e 5 56
e 6 9
e 6 11
e 6 13
e 6 14
e 6 17
e 6 21
e 6 24
e 6 25
e 6 26
e 6 31
e 6 32
e 6 34
e 6 35
e 6 38
e 6 39
e 6 40
e 6 41
e 6 43
e 6 51
e 6 52
e 6 55
e 7 8
e 7 9
e 7 15
e 7 16
e 7 18
e 7 20
e 7 23
e 7 24
e 7 26
e 7 27
e 7 28
e 7 29
e 7 30
e 7 31
e 7 35
e 7 38
e 7 42
e 7 48
e 7 50
e 7 53
e 7 55
e 7 56
e 8 9
e 8 11
e 8 12
e 8 13
e 8 14
e 8 16
e 8 17
e 8 18
e 8 19
e 8 20
e 8 22
e 8 23
e 8 25
e 8 26
e 8 31
e 8 34
e 8 38
e 8 41
e 8 43
e 8 44
e 8 46
e 8 47
e 8 49
e 8 50
e 8 54
e 8 55
e 8 56
e 9 10
e 9 11
e 9 14
e 9 15
e 9 16
e 9 17
e 9 18
e 9 19
e 9 20
e 9 23
e 9 24
e 9 27
e 9 28
e 9 31
e 9 34
e 9 35
e 9 37
e 9 38
e 9 41
e 9 46
e 9 47
e 9 49
e 9 50
e 9 53
e 9 55
e 9 56
e 10 12
e 10 17
e 10 21
e 10 22
e 10 23
e 10 29
e 10 31
e 10 38
e 10 39
e 10 40
e 10 41
e 10 42
e 10 48
e 10 50
e 10 51
e 10 54
e 10 56
e 11 14
e 11 16
e 11 17
e 11 19
e 11 22
e 11 23
e 11 24
e 11 25
e 11 27
e 11 28
e 11 29
e 11 34
e 11 36
e 11 37
e 11 39
e 11 40
e 11 42
e 11 43
e 11 45
e 11 48
e 11 53
e 11 56
e 12 13
e 12 14
e 12 15
e 12 18
e 12 21
e 12 22
e 12 24
e 12 26
e 12 29
e 12 30
e 12 32
e 12 33
e 12 34
e 12 35
e 12 36
e 12 41
e 12 43
e 12 45
e 12 47
e 12 50
e 12 53
e 12 54
e 12 56
e 13 16
e 13 17
e 13 22
e 13 24
e 13 25
e 13 26
e 13 27
e 13 28
e 13 29
e 13 30
e 13 33
e 13 34
e 13 35
e 13 38
e 13 39
e 13 40
e 13 44
e 13 45
e 13 48
e 13 49
e 13 52
e 13 56
e 14 17
e 14 19
e 14 20
e 14 22
e 14 24
e 14 27
e 14 29
e 14 30
e 14 31
e 14 32
e 14 34
e 14 37
e 14 38
e 14 39
e 14 41
e 14 42
e 14 43
e 14 45
e 14 46
e 14 47
e 14 48
e 14 51
e 14 52
e 14 53
e 14 54
e 14 55
e 15 17
e 15 18
e 15 20
e 15 21
e 15 22
e 15 23
e 15 24
e 15 26
e 15 27
e 15 32
e 15 35
e 15 36
e 15 37
e 15 40
e 15 42
e 15 46
e 15 47
e 15 54
e 15 55
e 16 17
e 16 20
e 16 21
e 16 25
e 16 27
e 16 28
e 16 37
e 16 39
e 16 40
e 16 43
e 16 44
e 16 45
e 16 46
e 16 47
e 16 52
e 16 53
e 16 56
e 17 21
e 17 23
e 17 25
e 17 26
e 17 28
e 17 32
e 17 33
e 17 37
e 17 40
e 17 42
e 17 45
e 17 49
e 17 53
e 17 55
e 17 56
e 18 19
e 18 21
e 18 23
e 18 24
e 18 25
e 18 26
e 18 27
e 18 32
e 18 33
e 18 34
e 18 35
e 18 37
e 18 38
e 18 39
e 18 40
e 18 41
e 18 42
e 18 43
e 18 44
e 18 45
e 18 49
e 18 53
e 19 22
e 19 23
e 19 24
e 19 25
e 19 27
e 19 28
e 19 29
e 19 30
e 19 32
e 19 34
e 19 38
e 19 39
e 19 40
e 19 43
e 19 45
e 19 46
e 19 47
e 19 48
e 19 50
e 19 51
e 19 54
e 20 21
e 20 22
e 20 23
e 20 25
e 20 26
e 20 27
e 20 28
e 20 29
e 20 36
e 20 37
e 20 38
e 20 39
e 20 42
e 20 43
e 20 44
e 20 46
e 20 49
e 20 50
e 20 54
e 21 23
e 21 25
e 21 26
e 21 29
e 21 30
e 21 31
e 21 32
e 21 35
e 21 39
e 21 40
e 21 41
e 21 42
e 21 43
e 21 46
e 21 49
e 21 50
e 21 54
e 21 55
e 22 23
e 22 24
e 22 25
e 22 27
e 22 29
e 22 30
e 22 32
e 22 35
e 22 39
e 22 44
e 22 45
e 22 46
e 22 47
e 22 48
e 22 49
e 22 51
e 22 52
e 22 53
e 22 56
e 23 24
e 23 26
e 23 28
e 23 29
e 23 30
e 23 32
e 23 34
e 23 35
e 23 39
e 23 40
e 23 41
e 23 44
e 23 49
e 23 53
e 23 54
e 23 55
e 23 56
e 24 25
e 24 28
e 24 29
e 24 32
e 24 34
e 24 36
e 24 37
e 24 38
e 24 39
e 24 41
e 24 42
e 24 45
e 24 50
e 24 53
e 24 55
e 24 56
e 25 26
e 25 27
e 25 32
e 25 33
e 25 34
e 25 37
e 25 38
e 25 40
e 25 42
e 25 46
e 25 47
e 25 48
e 25 49
e 25 50
e 25 52
e 25 53
e 25 55
e 26 28
e 26 29
e 26 30
e 26 31
e 26 34
e 26 35
e 26 37
e 26 38
e 26 39
e 26 40
e 26 41
e 26 45
e 26 46
e 26 51
e 26 52
e 26 54
e 27 28
e 27 34
e 27 35
e 27 38
e 27 42
e 27 48
e 27 49
e 27 50
e 27 52
e 27 54
e 27 56
e 28 29
e 28 31
e 28 34
e 28 35
e 28 37
e 28 38
e 28 39
e 28 42
e 28 43
e 28 52
e 29 30
e 29 32
e 29 34
e 29 35
e 29 36
e 29 39
e 29 41
e 29 46
e 29 47
e 30 33
e 30 34
e 30 35
e 30 37
e 30 46
e 30 51
e 30 52
e 30 53
e 30 55
e 31 32
e 31 34
e 31 35
e 31 36
e 31 39
e 31 42
e 31 43
e 31 47
e 31 48
e 31 51
e 32 34
e 32 35
e 32 38
e 32 39
e 32 43
e 32 44
e 32 45
e 32 48
e 32 49
e 32 51
e 32 52
e 32 56
e 33 34
e 33 37
e 33 42
e 33 43
e 33 44
e 33 45
e 33 48
e 33 49
e 33 51
e 33 52
e 33 56
e 34 36
e 34 37
e 34 41
e 34 46
e 34 47
e 34 49
e 34 52
e 34 53
e 34 55
e 34 56
e 35 36
e 35 37
e 35 39
e 35 40
e 35 42
e 35 43
e 35 44
e 35 47
e 35 48
e 35 50
e 35 52
e 35 55
e 35 56
e 36 38
e 36 39
e 36 40
e 36 41
e 36 43
e 36 44
e 36 46
e 36 47
e 36 52
e 36 53
e 37 39
e 37 40
e 37 45
e 37 46
e 37 50
e 37 53
e 37 54
e 38 40
e 38 41
e 38 42
e 38 46
e 38 48
e 38 49
e 38 51
e 38 52
e 38 53
e 38 55
e 38 56
e 39 40
e 39 43
e 39 44
e 39 46
e 39 48
e 39 50
e 39 51
e 39 56
e 40 41
e 40 48
e 40 50
e 40 52
e 41 43
e 41 47
e 41 49
e 41 50
e 41 52
e 41 53
e 41 54
e 42 43
e 42 44
e 42 45
e 42 46
e 42 48
e 42 49
e 42 51
e 42 52
e 42 55
e 42 56
e 43 46
e 43 47
e 43 55
e 43 56
e 44 48
e 44 50
e 44 51
e 44 52
e 44 53
e 44 54
e 44 55
e 44 56
e 45 47
e 45 49
e 45 51
e 45 55
e 45 56
e 46 48
e 46 50
e 46 51
e 46 53
e 46 54
e 46 56
e 47 48
e 47 50
e 47 51
e 47 53
e 47 54
e 47 55
e 48 49
e 48 52
e 48 54
e 48 55
e 49 50
e 49 51
e 49 54
e 50 53
e 50 56
e 51 52
e 51 55
e 51 56
e 52 54
e 52 55
e 52 56
e 54 55
e 55 56
